Selected objective sense:  MINIMIZE
Selected objective  name:  OBJ
Selected RHS        name:  RHS1
CPXPARAM_Preprocessing_Presolve                  0
CPXPARAM_LPMethod                                4
CPXPARAM_Threads                                 1
CPXPARAM_SolutionType                            2
CPXPARAM_TimeLimit                               3600
Tried aggregator 0 times.
DUAL formed by presolve
Reduced presolve eliminated 51 rows and 4213 columns.
Reduced LP has 7401 rows, 2057 columns, and 277228 nonzeros.
Presolve time = 0.10 sec. (88.32 ticks)
Parallel mode: none, using 1 thread for barrier

***NOTE: Found 52 dense columns.

Number of nonzeros in lower triangle of A*A' = 12935
Using Approximate Minimum Degree ordering
Total time for automatic ordering = 0.00 sec. (1.14 ticks)
Summary statistics for Cholesky factor:
  Rows in Factor            = 7453
  Integer space required    = 125253
  Total non-zeros in factor = 365779
  Total FP ops to factor    = 18977957
 Itn      Primal Obj        Dual Obj  Prim Inf Upper Inf  Dual Inf Inf Ratio
   0  -1.1972961e+07   3.0342556e+06  2.51e+08  6.13e+03  7.54e+05  1.00e+00
   1  -1.9157341e+06   3.8443075e+05  3.20e+07  7.82e+02  1.80e+05  4.79e-04
   2  -2.3495591e+05   1.1202751e+05  4.65e+06  1.14e+02  3.33e+04  1.39e-03
   3  -8.9889988e+04   1.7577216e+04  1.67e+06  4.07e+01  7.26e+03  8.96e-03
   4  -4.2814444e+04   8.5331809e+03  7.81e+05  1.91e+01  3.80e+03  1.83e-02
   5  -3.4265122e+04   4.9919201e+03  6.17e+05  1.50e+01  2.55e+03  2.71e-02
   6  -1.6227141e+04   2.5228745e+03  2.86e+05  6.97e+00  1.43e+03  5.25e-02
   7  -1.0598317e+04   1.5573324e+03  1.80e+05  4.39e+00  1.04e+03  7.91e-02
   8  -1.0409493e+04   1.2213853e+03  1.74e+05  4.24e+00  9.89e+02  8.18e-02
   9  -6.1359044e+03   4.2377400e+02  1.00e+05  2.44e+00  4.83e+02  2.26e-01
  10  -3.8943747e+03  -1.4917404e+02  5.82e+04  1.42e+00  2.52e+02  5.11e-01
  11  -2.4688550e+03  -3.5658287e+02  3.44e+04  8.40e-01  4.73e+01  4.63e+00
  12  -1.1050983e+03  -3.7133143e+02  1.20e+04  2.93e-01  1.10e+01  1.74e+01
  13  -6.2909853e+02  -3.9520195e+02  3.83e+03  9.34e-02  3.41e+00  5.56e+01
  14  -5.7013415e+02  -4.1160747e+02  2.65e+03  6.46e-02  2.11e+00  8.67e+01
  15  -5.6002894e+02  -4.1551897e+02  2.45e+03  5.98e-02  1.74e+00  1.03e+02
  16  -5.5620542e+02  -4.1423598e+02  2.39e+03  5.84e-02  1.66e+00  1.09e+02
  17  -4.8063025e+02  -4.2257204e+02  8.78e+02  2.14e-02  1.05e+00  1.67e+02
  18  -4.6085649e+02  -4.3263733e+02  4.57e+02  1.11e-02  4.21e-01  4.44e+02
  19  -4.5526435e+02  -4.3510948e+02  3.33e+02  8.12e-03  2.84e-01  6.50e+02
  20  -4.4762400e+02  -4.3734293e+02  1.57e+02  3.82e-03  1.73e-01  1.05e+03
  21  -4.4526548e+02  -4.3783918e+02  9.17e+01  2.24e-03  1.54e-01  1.18e+03
  22  -4.4277176e+02  -4.3852323e+02  2.31e+01  5.63e-04  1.28e-01  1.43e+03
  23  -4.4255609e+02  -4.4082467e+02  1.79e+01  4.37e-04  3.86e-02  5.28e+03
  24  -4.4247053e+02  -4.4084294e+02  1.65e+01  4.02e-04  3.75e-02  5.45e+03
  25  -4.4212414e+02  -4.4092623e+02  8.32e+00  2.03e-04  3.41e-02  6.00e+03
  26  -4.4200918e+02  -4.4129078e+02  5.73e+00  1.40e-04  1.91e-02  1.16e+04
  27  -4.4198147e+02  -4.4131382e+02  5.23e+00  1.28e-04  1.80e-02  1.24e+04
  28  -4.4187559e+02  -4.4136889e+02  2.74e+00  6.69e-05  1.58e-02  1.41e+04
  29  -4.4184435e+02  -4.4145240e+02  2.07e+00  5.05e-05  1.23e-02  1.82e+04
  30  -4.4184093e+02  -4.4145993e+02  2.02e+00  4.93e-05  1.19e-02  1.89e+04
  31  -4.4181845e+02  -4.4148774e+02  1.38e+00  3.37e-05  1.08e-02  2.09e+04
  32  -4.4179497e+02  -4.4160905e+02  9.19e-01  2.24e-05  5.80e-03  4.23e+04
  33  -4.4178818e+02  -4.4162026e+02  8.29e-01  2.02e-05  5.24e-03  4.71e+04
  34  -4.4177731e+02  -4.4163547e+02  6.07e-01  1.48e-05  4.61e-03  5.37e+04
  35  -4.4174361e+02  -4.4172914e+02  9.70e-02  2.37e-06  3.66e-04  6.96e+05
  36  -4.4173794e+02  -4.4173699e+02  7.22e-03  1.76e-07  2.19e-05  1.16e+07
  37  -4.4173752e+02  -4.4173747e+02  3.63e-04  8.85e-09  1.09e-06  2.32e+08
  38  -4.4173750e+02  -4.4173750e+02  1.82e-05  4.44e-10  1.33e-07  4.34e+09
Barrier time = 0.71 sec. (1010.13 ticks)

Total time on 1 threads = 0.71 sec. (1010.13 ticks)
Solve time: 0.7128697
Barrier iterations: 38
